param set_len = 58;
param target_sum = 16734358045;
param values := [1] 226707449 [2] 940664548 [3] 567102526 [4] 275339226 [5] 758381544 [6] 898634880 [7] 61072794 [8] 939839266 [9] 747662742 [10] 168351263 [11] 684383233 [12] 130839326 [13] 793982853 [14] 340806138 [15] 99130914 [16] 107989279 [17] 116266590 [18] 865602978 [19] 602747757 [20] 620769110 [21] 590069606 [22] 214558936 [23] 673374286 [24] 655900146 [25] 754781207 [26] 354531454 [27] 823158652 [28] 457125632 [29] 726943516 [30] 522259211 [31] 734684299 [32] 45979622 [33] 1049752911 [34] 759028654 [35] 843375147 [36] 1057371010 [37] 52137368 [38] 388939859 [39] 75029703 [40] 547170311 [41] 355177464 [42] 1041529521 [43] 866154157 [44] 460936577 [45] 21008936 [46] 626897251 [47] 873294519 [48] 429769712 [49] 895841235 [50] 701166625 [51] 982580979 [52] 839220740 [53] 892340771 [54] 789333800 [55] 555891395 [56] 495615533 [57] 564918361 [58] 189355749 ;
